2 30
332 256 
0 6 12 25 30 85 91 2
1 9 4 35 39 82 6 2
2 16 26 93 97 86 66 1
3 83 91 50 46 23 28 1
4 96 88 42 39 92 80 1
5 48 58 1 4 29 9 2
6 90 89 11 16 27 57 1
7 58 68 1 6 82 6 1
8 31 25 95 92 74 43 1
9 95 98 59 53 23 82 1
10 92 92 33 30 74 80 1
11 75 79 81 90 81 16 1
12 56 56 13 7 95 63 1
13 55 56 97 95 68 27 1
14 36 33 66 59 4 35 1
15 26 25 42 39 87 66 1
16 44 53 29 32 68 13 2
17 16 16 8 11 83 54 1
18 36 41 57 56 43 100 1
19 84 94 65 61 10 8 1
20 1 5 8 12 58 63 2
21 66 64 23 30 69 57 1
22 83 88 33 39 63 76 1
23 33 43 34 25 39 78 2
24 60 57 77 75 89 48 2
25 32 36 45 51 1 16 2
26 66 62 10 5 79 30 1
27 82 72 8 10 28 26 1
28 34 34 49 56 21 43 2
29 93 99 70 78 84 50 2
